c SAT Benchmark Problem 07
c Generated for solver validation testing
c Expected outcome: SAT (satisfiable)
c
c This problem encodes a satisfiable constraint system
c with multiple valid variable assignments
c
p cnf 12 24
1 2 3 0
-1 4 0
-2 5 0
-3 6 0
4 7 0
5 8 0
6 9 0
7 10 0
8 11 0
9 12 0
-4 -5 0
-5 -6 0
-7 -8 0
-8 -9 0
1 -10 0
2 -11 0
3 -12 0
10 11 12 0
-1 -2 7 0
-2 -3 8 0
4 5 -10 0
5 6 -11 0
7 8 -12 0
1 2 -4 0